unsat
(:binary-propagations  21
 :conflicts            1
 :final-checks         1
 :max-generation       1
 :max-memory           33.62
 :memory               23.83
 :mk-bool-var          5403
 :mk-clause            1598
 :mk-clause-binary     5312
 :num-allocs           252860226
 :num-checks           1
 :propagations         21
 :quant-instantiations 1162
 :restarts             1
 :rlimit-count         1128744
 :time                 0.19)
